
  22   10
  10   10   10   10   10   10   10   10   10   10

   0   0   0   0   0   0   0   0   0   0   0   4 2 4 5 10 
   5   0   0   0  10   0   0   0   0   0   0   2 21 3 
   9   0   0  10   0   0   0   0   0   0   0   2 20 6 
   9   0   0   0   0   0   0  10   0   0   0   3 20 19 8 
  10   0  10   0   0   0   0   0   0   0   0   3 20 19 8 
   3   0  10   0   0   0   0   0   0   0   0   1 7 
  10   0   0   0   0   0  10   0   0   0   0   2 19 8 
   6   0   0   0   0   0   0   0  10   0   0   1 9 
  10   0   0  10   0   0   0   0   0   0   0   3 18 16 11 
   1   0   0   0   0   0   0   0   0  10   0   4 21 16 15 13 
   5   0   0  10   0   0   0   0   0   0   0   3 17 15 12 
   8   0   0   0   0   0   0   0   0   0  10   1 13 
  10   0   0   0   0   0   0   0   0   0  10   1 14 
   5   0   0   0   0   0   0   0  10   0   0   1 22
   1   0   0   0   0   0   0   0   0   0  10   1 22
   2   0   0   0  10   0   0   0   0   0   0   1 22
  10   0   0   0  10   0   0   0   0   0   0   1 22
   3   0   0   0   0   0  10   0   0   0   0   1 22
   1   0   0   0  10   0   0   0   0   0   0   1 22
   1   0   0  10   0   0   0   0   0   0   0   1 22
   4   0   0   0   0  10   0   0   0   0   0   1 22
   0   0   0   0   0   0   0   0   0   0   0   0 
